# Cost: 762

# Tail Head Net
 17  16 1
 18  17 1
 19  18 1
 20  19 1
 21  20 1
 22  21 1
 23  22 1
 24  23 1
 25  24 1
 26  25 1
 27  26 1
 28  27 1
 29  28 1
 30  29 1
 31  30 1
 32  31 1
 33  32 1
 34  33 1
 35  34 1
 36  35 1
 37  36 1
 38  37 1
 39  38 1
 40  39 1
 41  40 1
 42  41 1
 43  42 1
 44  43 1
 45  44 1
 46  45 1
 47  46 1
 48  47 1
 49  48 1
 50  49 1
 51  50 1
 52  51 1
 53  52 1
 54  53 1
 55  54 1
 56  55 1
 57  56 1
 58  57 1
 59  58 1
 60  59 1
 61  60 1
 62  61 1
 63  62 1
 64  63 1
 65  64 1
 66  65 1
 67  66 1
 68  67 1
 69  68 1
 70  69 1
150  70 1
151 150 1
231 151 1
311 231 1
391 311 1
471 391 1
472 471 1
552 472 1
553 552 1
554 553 1
555 554 1
556 555 1
557 556 1
558 557 1
559 558 1
560 559 1
722 721 2
723 722 2
724 723 2
725 724 2
726 725 2
727 726 2
728 727 2
729 728 2
730 729 2
731 730 2
732 731 2
733 732 2
734 733 2
735 734 2
736 735 2
737 736 2
738 737 2
739 738 2
740 739 2
741 740 2
742 741 2
743 742 2
744 743 2
745 744 2
746 745 2
747 746 2
748 747 2
749 748 2
829 749 2
909 829 2
989 909 2
1069 989 2
1149 1069 2
1229 1149 2
1309 1229 2
1389 1309 2
1469 1389 2
1549 1469 2
1629 1549 2
1709 1629 2
1789 1709 2
1869 1789 2
1949 1869 2
2029 1949 2
2109 2029 2
2189 2109 2
2269 2189 2
2349 2269 2
2429 2349 2
2429 2430 2
2430 2431 2
2431 2432 2
2432 2433 2
2433 2434 2
2434 2435 2
2435 2436 2
2436 2437 2
2437 2438 2
2438 2439 2
2439 2440 2
2440 2441 2
2441 2442 2
2442 2443 2
2443 2444 2
2444 2445 2
2445 2446 2
2446 2447 2
2447 2448 2
2448 2449 2
2449 2450 2
2450 2451 2
2451 2452 2
2452 2453 2
2453 2454 2
2454 2455 2
2455 2456 2
2456 2457 2
2457 2458 2
2458 2459 2
2459 2460 2
2460 2461 2
2461 2462 2
2462 2463 2
2463 2464 2
2464 2465 2
2465 2466 2
2466 2467 2
2467 2468 2
2468 2469 2
2469 2470 2
2470 2471 2
2471 2472 2
2472 2473 2
2473 2474 2
2474 2475 2
2475 2476 2
2476 2477 2
2477 2478 2
2478 2479 2
2479 2480 2
2509 2429 2
2589 2509 2
2669 2589 2
2749 2669 2
2829 2749 2
2909 2829 2
2989 2909 2
3069 2989 2
3149 3069 2
3229 3149 2
3309 3229 2
3389 3309 2
3469 3389 2
3549 3469 2
3629 3549 2
3709 3629 2
3789 3709 2
3869 3789 2
3949 3869 2
4029 3949 2
4109 4029 2
4189 4109 2
4269 4189 2
4349 4269 2
4429 4349 2
4509 4429 2
4589 4509 2
4669 4589 2
4749 4669 2
4829 4749 2
4909 4829 2
4989 4909 2
5069 4989 2
5149 5069 2
5229 5149 2
5309 5229 2
5389 5309 2
5469 5389 2
5549 5469 2
5629 5549 2
5709 5629 2
5789 5709 2
5869 5789 2
5949 5869 2
6029 5949 2
6109 6029 2
6189 6109 2
6269 6189 2
6349 6269 2
3921 3841 3
4001 3921 3
4081 4001 3
4161 4081 3
4241 4161 3
4321 4241 3
4401 4321 3
4481 4401 3
4561 4481 3
4641 4561 3
4721 4641 3
4801 4721 3
4881 4801 3
4961 4881 3
5041 4961 3
5121 5041 3
5201 5121 3
5202 5201 3
5282 5202 3
5362 5282 3
5442 5362 3
5443 5442 3
5523 5443 3
5603 5523 3
12003 5603 3
12004 12003 3
12084 12004 3
12085 12084 3
12086 12085 3
12087 12086 3
12088 12087 3
12089 12088 3
12090 12089 3
12091 12090 3
12092 12091 3
12093 12092 3
12094 12093 3
12095 12094 3
12096 12095 3
12097 12096 3
12098 12097 3
12099 12098 3
12100 12099 3
12101 12100 3
12102 12101 3
12103 12102 3
12104 12103 3
12105 12104 3
12106 12105 3
12107 12106 3
12108 12107 3
12188 12108 3
12268 12188 3
12348 12268 3
12349 12348 3
12350 12349 3
12351 12350 3
12352 12351 3
12353 12352 3
12354 12353 3
12434 12354 3
12514 12434 3
12515 12514 3
12516 12515 3
12517 12516 3
12518 12517 3
12519 12518 3
12520 12519 3
12521 12520 3
12522 12521 3
12523 12522 3
12524 12523 3
12525 12524 3
12526 12525 3
12527 12526 3
12528 12527 3
12608 12528 3
6289 12689 3
12609 12608 3
6369 6289 3
12689 12609 3
6370 6369 3
6371 6370 3
6241 6161 4
6321 6241 4
6322 6321 4
6323 6322 4
6324 6323 4
6325 6324 4
6326 6325 4
6327 6326 4
6328 6327 4
6329 6328 4
6330 6329 4
6331 6330 4
6332 6331 4
6333 6332 4
6334 6333 4
6335 6334 4
6336 6335 4
6337 6336 4
6338 6337 4
6339 6338 4
6340 6339 4
6341 6340 4
6342 6341 4
6343 6342 4
6344 6343 4
6345 6344 4
6346 6345 4
6347 6346 4
6348 6347 4
6348 12748 4
6372 6373 4
6373 6374 4
6374 6375 4
6375 6376 4
6376 6377 4
6377 6378 4
6378 6379 4
6379 6380 4
6380 6381 4
6381 6382 4
6382 6383 4
6383 6384 4
6384 6385 4
6385 6386 4
6386 6387 4
6387 6388 4
6388 6389 4
6389 6390 4
12748 12749 4
12749 12750 4
12750 12751 4
12751 12752 4
12752 12753 4
12753 12754 4
12754 12755 4
12755 12756 4
12756 12757 4
12757 12758 4
12758 12759 4
12759 12760 4
12760 12761 4
12761 12762 4
12762 12763 4
12763 12764 4
12764 12765 4
12765 12766 4
12766 12767 4
12767 12768 4
12768 12769 4
12769 12770 4
12770 12771 4
12771 12772 4
12772 6372 4
8161 1761 5
8162 8161 5
8163 8162 5
8164 8163 5
8165 8164 5
8166 8165 5
8167 8166 5
8168 8167 5
8169 8168 5
8170 8169 5
8171 8170 5
8172 8171 5
8173 8172 5
8174 8173 5
8175 8174 5
8176 8175 5
8177 8176 5
8178 8177 5
8179 8178 5
8180 8179 5
8181 8180 5
8182 8181 5
8183 8182 5
8184 8183 5
8185 8184 5
8186 8185 5
8187 8186 5
8188 8187 5
8189 8188 5
8190 8189 5
8191 8190 5
8192 8191 5
8193 8192 5
8194 8193 5
8195 8194 5
8196 8195 5
8197 8196 5
8198 8197 5
8199 8198 5
8200 8199 5
8201 8200 5
8202 8201 5
8203 8202 5
8204 8203 5
8205 8204 5
8206 8205 5
8207 8206 5
8208 8207 5
8209 8208 5
8210 8209 5
8211 8210 5
8212 8211 5
8213 8212 5
8214 8213 5
8215 8214 5
8216 8215 5
8217 8216 5
8218 8217 5
8219 8218 5
8220 8219 5
8221 8220 5
8222 8221 5
8223 8222 5
8224 8223 5
8225 8224 5
8226 8225 5
8227 8226 5
8228 8227 5
8229 8228 5
8230 8229 5
8231 8230 5
8232 8231 5
8233 8232 5
8234 8233 5
8235 8234 5
8236 8235 5
8237 8236 5
8238 8237 5
8239 8238 5
8240 8239 5
8320 8240 5
8400 8320 5
8480 8400 5
8560 8480 5
8640 8560 5
8720 8640 5
8800 8720 5
8880 8800 5
8960 8880 5
9040 8960 5
9120 9040 5
9200 9120 5
2960 9360 5
9280 9200 5
9360 9280 5
  8   7 6
  9   8 6
 10   9 6
 11  10 6
 12  11 6
 13  12 6
 14  13 6
4640 4560 7
4720 4640 7
4800 4720 7
4880 4800 7
4960 4880 7
5040 4960 7
5120 5040 7
5200 5120 7
5280 5200 7
5360 5280 7
5440 5360 7
5520 5440 7
5600 5520 7
5680 5600 7
 82   2 8
162  82 8
242 162 8
322 242 8
402 322 8
482 402 8
6882 482 8
6962 6882 8
7042 6962 8
7122 7042 8
7202 7122 8
7282 7202 8
7362 7282 8
7442 7362 8
7522 7442 8
7602 7522 8
7682 7602 8
7762 7682 8
7842 7762 8
7922 7842 8
1682 8082 8
8002 7922 8
1762 1682 8
8082 8002 8
1841 1842 8
1842 1762 8
1921 1841 8
2001 1921 8
2081 2001 8
2161 2081 8
2241 2161 8
2321 2241 8
2401 2321 8
2481 2401 8
6205 6206 9
6206 6207 9
6207 6208 9
6208 6209 9
6209 6210 9
6210 6211 9
6211 6212 9
6212 6213 9
6213 6214 9
6214 6294 9
6280 6281 9
6281 6282 9
6282 6283 9
6283 6284 9
6284 6285 9
6285 6205 9
6294 6295 9
6295 6296 9
6296 6297 9
6297 6298 9
6298 6299 9
6299 6300 9
6300 6301 9
6301 6302 9
6302 6303 9
6303 6304 9
6304 6305 9
6305 6306 9
6306 6307 9
6307 6308 9
6308 6309 9
6309 6310 9
6310 6311 9
6311 6391 9
6360 6280 9
400 480 10
473 6873 10
474 473 10
475 474 10
476 475 10
477 476 10
478 477 10
479 478 10
480 479 10
6870 6950 10
6871 6870 10
6872 6871 10
6873 6872 10
6944 7024 10
6945 6944 10
6946 6945 10
6947 6946 10
6948 6947 10
6949 6948 10
6950 6949 10
7023 7103 10
7024 7023 10
7100 7180 10
7101 7100 10
7102 7101 10
7103 7102 10
7176 7256 10
7177 7176 10
7178 7177 10
7179 7178 10
7180 7179 10
7255 7335 10
7256 7255 10
7328 7408 10
7329 7328 10
7330 7329 10
7331 7330 10
7332 7331 10
7333 7332 10
7334 7333 10
7335 7334 10
7389 7469 10
7390 7389 10
7391 7390 10
7392 7391 10
7393 7392 10
7394 7393 10
7395 7394 10
7396 7395 10
7397 7396 10
7398 7397 10
7399 7398 10
7400 7399 10
7401 7400 10
7402 7401 10
7403 7402 10
7404 7403 10
7405 7404 10
7406 7405 10
7407 7406 10
7408 7407 10
1148 1228 10
7469 7549 10
1228 1308 10
7548 1148 10
7549 7548 10
1308 1388 10
1361 1441 10
1362 1361 10
1363 1362 10
1364 1363 10
1365 1364 10
1366 1365 10
1367 1366 10
1368 1367 10
1369 1368 10
1370 1369 10
1371 1370 10
1372 1371 10
1373 1372 10
1374 1373 10
1375 1374 10
1376 1375 10
1377 1376 10
1378 1377 10
1379 1378 10
1380 1379 10
1381 1380 10
1382 1381 10
1383 1382 10
1384 1383 10
1385 1384 10
1386 1385 10
1387 1386 10
1388 1387 10
3121 3201 11
3201 3281 11
3281 3361 11
1601 1681 12
1602 1601 12
1603 1602 12
1604 1603 12
1605 1604 12
1606 1605 12
1607 1606 12
1608 1607 12
1609 1608 12
1610 1609 12
1611 1610 12
1612 1611 12
1613 1612 12
1614 1613 12
1615 1614 12
1616 1615 12
1617 1616 12
1618 1617 12
1619 1618 12
1620 1619 12
1621 1620 12
1622 1621 12
1623 1622 12
1624 1623 12
1625 1624 12
1705 1625 12
1706 1705 12
1786 1706 12
1787 1786 12
1788 1787 12
1868 1788 12
8268 1868 12
8269 8268 12
8270 8269 12
8271 8270 12
8272 8271 12
8273 8272 12
8274 8273 12
8275 8274 12
8276 8275 12
8277 8276 12
8278 8277 12
8279 8278 12
8280 8279 12
8281 8280 12
8282 8281 12
8283 8282 12
8284 8283 12
8285 8284 12
8286 8285 12
8287 8286 12
8288 8287 12
8289 8288 12
8290 8289 12
8291 8290 12
8292 8291 12
8293 8292 12
8294 8293 12
8295 8294 12
8296 8295 12
8297 8296 12
8298 8297 12
8299 8298 12
8300 8299 12
8301 8300 12
8302 8301 12
8303 8302 12
8304 8303 12
8305 8304 12
8306 8305 12
8307 8306 12
8308 8307 12
8309 8308 12
8310 8309 12
8311 8310 12
8312 8311 12
8313 8312 12
8314 8313 12
8315 8314 12
8316 8315 12
8317 8316 12
8318 8317 12
8319 8318 12
2079 8479 12
8399 8319 12
2080 2079 12
8479 8399 12
6275 6276 13
6276 6277 13
6277 6278 13
6278 6279 13
6279 12679 13
6287 6367 13
6355 6275 13
12679 12680 13
12680 12681 13
12681 12682 13
12682 12683 13
12683 12684 13
12684 12685 13
12685 12686 13
12686 12687 13
6367 6368 13
12687 6287 13
